
Gurobi 13.0.2 (win64) logging started Thu Jul 23 12:20:26 2026

Set parameter LogFile to value "E:\codes\ExactEBRP\results\gf_gurobi_performance_recovery_round29\development\V12_M1__c3_replica__60s\external\native_logs\R.1.0.0.0.1.0.1.0.1.0_terminal_mip.gurobi.log"
Gurobi Optimizer version 13.0.2 build v13.0.2rc1 (win64 - Windows 10.0 (19045.2))

CPU model: 12th Gen Intel(R) Core(TM) i7-12700KF, instruction set [SSE2|AVX|AVX2]
Thread count: 12 physical cores, 20 logical processors, using up to 1 threads

Non-default parameters:
TimeLimit  3.9976422000000014e+00
MIPGap  0
MIPGapAbs  0
LogToConsole  0
Threads  1

Optimize a model with 6225 rows, 648 columns and 59365 nonzeros (Min)
Model fingerprint: 0xde85862a
Model has 13 linear objective coefficients
Variable types: 347 continuous, 301 integer (253 binary)
Coefficient statistics:
  Matrix range     [2e-03, 1e+05]
  Objective range  [2e-03, 1e+00]
  Bounds range     [1e-01, 8e+01]
  RHS range        [3e-02, 1e+06]

Presolve removed 742 rows and 27 columns
Presolve time: 0.13s
Presolved: 5483 rows, 621 columns, 58745 nonzeros
Variable types: 321 continuous, 300 integer (252 binary)

Root relaxation: objective 3.223563e-01, 938 iterations, 0.05 seconds (0.16 work units)

    Nodes    |    Current Node    |     Objective Bounds      |     Work
 Expl Unexpl |  Obj  Depth IntInf | Incumbent    BestBd   Gap | It/Node Time

     0     0    0.32236    0  107          -    0.32236      -     -    0s
     0     0    0.32822    0   65          -    0.32822      -     -    0s
     0     0    0.32828    0   75          -    0.32828      -     -    0s
     0     0    0.34029    0   87          -    0.34029      -     -    0s
     0     0    0.34263    0  101          -    0.34263      -     -    0s
     0     0    0.35528    0   95          -    0.35528      -     -    1s
     0     0 infeasible    0               - infeasible      -     -    1s

Cutting planes:
  Learned: 1
  Gomory: 2
  Cover: 13
  Implied bound: 34
  Clique: 20
  MIR: 42
  StrongCG: 1
  Flow cover: 34
  GUB cover: 6
  Zero half: 5
  Network: 2
  RLT: 9
  Relax-and-lift: 7
  BQP: 5
  PSD: 2

Explored 1 nodes (1758 simplex iterations) in 1.11 seconds (1.30 work units)
Thread count was 1 (of 20 available processors)

Solution count 0

Model is infeasible
Best objective -, best bound -, gap -

User-callback calls 1009, time in user-callback 0.00 sec
